100 100 10646086
26 26 37 35 33 33 23 22 29 15 31 16 32 15 21 25 38 29 40 22
43 19 30 34 21 39 15 48 13 23 36 34 29 14 32 42 31 36 42 47
1118 494 1110 1190 693 1287 345 1056 377 345 1116 544 928 210 672 1050 1178 1044 1680 10341269
1128 541 1005 1282 737 1222 303 1270 350 428 1134 607 1043 266 739 1390 1519 1242 1556 9678260
